(set-info :smt-lib-version 2.6)
(set-logic QF_S)
(set-info :source |
Generated by: Murphy Berzish, Mitja Kulczynski, Federico Mora, Florin Manea, Joel Day, Dirk Nowotka, Vijay Ganesh, Zhengyang Lu
Generated on: 2020-10-01
Description: Translated from a collection of real-world regex queries, AutomataArk, collected by Loris D’Antoni and Fang Wang: https://github.com/lorisdanto/automatark
Application: Evaluate solvers on real-world regex queries
Target solver: Z3str3RE, CVC4, OSTRICH, Z3seq, Z3str3, Z3-Trau
Publications: Berzish, M., Kulczynski, M., Mora, F., Manea, F., Day, J. D., Nowotka, D., & Ganesh, V. (2021, July). An SMT solver for regular expressions and linear arithmetic over string length. In CAV 2021.
|)
(set-info :license "https://creativecommons.org/licenses/by/4.0/")
(set-info :category "industrial")
(set-info :status sat)

(declare-const X String)
(assert (not (str.in_re X (re.union (re.++ ((_ re.loop 3 3) (re.range "A" "Z")) (re.opt (re.union (str.to_re " ") (str.to_re "\u{9}") (str.to_re "\u{a}") (str.to_re "\u{c}") (str.to_re "\u{d}"))) (re.union ((_ re.loop 3 3) (re.range "0" "9")) ((_ re.loop 2 2) (re.range "0" "9")) ((_ re.loop 1 1) (str.to_re "d"))) (re.opt (re.union (str.to_re " ") (str.to_re "\u{9}") (str.to_re "\u{a}") (str.to_re "\u{c}") (str.to_re "\u{d}"))) (re.range "A" "Z")) (re.++ (re.range "A" "Z") (re.opt (re.union (str.to_re " ") (str.to_re "\u{9}") (str.to_re "\u{a}") (str.to_re "\u{c}") (str.to_re "\u{d}"))) (re.union ((_ re.loop 3 3) (re.range "0" "9")) ((_ re.loop 2 2) (re.range "0" "9")) ((_ re.loop 1 1) (re.range "0" "9"))) (re.opt (re.union (str.to_re " ") (str.to_re "\u{9}") (str.to_re "\u{a}") (str.to_re "\u{c}") (str.to_re "\u{d}"))) ((_ re.loop 3 3) (re.range "A" "Z"))) (re.++ (str.to_re "\u{a}") (re.opt (re.union (str.to_re " ") (str.to_re "\u{9}") (str.to_re "\u{a}") (str.to_re "\u{c}") (str.to_re "\u{d}"))) (re.union (re.++ (str.to_re "0") (re.range "2" "9")) (re.++ (re.range "1" "9") (re.range "0" "9"))) (re.opt (re.union (str.to_re " ") (str.to_re "\u{9}") (str.to_re "\u{a}") (str.to_re "\u{c}") (str.to_re "\u{d}"))) ((_ re.loop 3 3) (re.union (re.range "A" "H") (re.range "J" "P") (re.range "R" "Z"))) (re.union (re.range "A" "H") (re.range "K" "P") (str.to_re "R") (str.to_re "S") (str.to_re "V") (str.to_re "W") (str.to_re "Y")) (re.union (re.range "A" "H") (re.range "J" "P") (re.range "R" "Y")))))))
(check-sat)

(exit)
